TCS_Benchmarks/redos_fix/regexlib1_output_distinct_4382_4381_0_0.smt2
(set-logic QF_S)
(declare-const x String)
(assert (str.in.re x (re.inter  (re.++ (re.*  (re.union  (str.to.re "\u{20}") (re.union  (str.to.re "\u{2e}") (re.union  (str.to.re "\u{2d}") (re.union (re.range "\u{30}" "\u{39}") (re.union (re.range "\u{41}" "\u{5a}") (re.range "\u{61}" "\u{7a}")))))) ) (re.*  (str.to.re "\u{2c}") ))  (re.++ (re.*  (re.union  (str.to.re "\u{20}") (re.union  (str.to.re "\u{2e}") (re.union  (str.to.re "\u{2d}") (re.union (re.range "\u{30}" "\u{39}") (re.union (re.range "\u{41}" "\u{5a}") (re.range "\u{61}" "\u{7a}")))))) ) (re.++  (re.union  (re.++  (str.to.re "\u{43}") (re.++  (str.to.re "\u{49}") (re.++  (str.to.re "\u{52}") (re.++  (str.to.re "\u{43}") (re.++  (str.to.re "\u{4c}")  (str.to.re "\u{45}")))))) (re.union  (re.++  (str.to.re "\u{43}") (re.++  (str.to.re "\u{49}")  (str.to.re "\u{52}"))) (re.union  (re.++  (str.to.re "\u{4d}") (re.++  (str.to.re "\u{4f}") (re.++  (str.to.re "\u{55}") (re.++  (str.to.re "\u{4e}") (re.++  (str.to.re "\u{54}") (re.++  (str.to.re "\u{41}") (re.++  (str.to.re "\u{49}")  (str.to.re "\u{4e}")))))))) (re.union  (re.++  (str.to.re "\u{4d}") (re.++  (str.to.re "\u{54}")  (str.to.re "\u{4e}"))) (re.union  (re.++  (str.to.re "\u{50}") (re.++  (str.to.re "\u{41}") (re.++  (str.to.re "\u{52}") (re.++  (str.to.re "\u{4b}") (re.++  (str.to.re "\u{57}") (re.++  (str.to.re "\u{41}")  (str.to.re "\u{59}"))))))) (re.union  (re.++  (str.to.re "\u{50}") (re.++  (str.to.re "\u{4b}") (re.++  (str.to.re "\u{57}")  (str.to.re "\u{59}")))) (re.union  (re.++  (str.to.re "\u{50}") (re.++  (str.to.re "\u{4b}")  (str.to.re "\u{59}"))) (re.union  (re.++  (str.to.re "\u{50}") (re.++  (str.to.re "\u{4c}") (re.++  (str.to.re "\u{41}") (re.++  (str.to.re "\u{5a}")  (str.to.re "\u{41}"))))) (re.union  (re.++  (str.to.re "\u{50}") (re.++  (str.to.re "\u{4c}") (re.++  (str.to.re "\u{5a}")  (str.to.re "\u{41}")))) (re.union  (re.++  (str.to.re "\u{50}") (re.++  (str.to.re "\u{4c}")  (str.to.re "\u{5a}"))) (re.union  (re.++  (str.to.re "\u{52}") (re.++  (str.to.re "\u{49}") (re.++  (str.to.re "\u{44}") (re.++  (str.to.re "\u{47}")  (str.to.re "\u{45}"))))) (re.union  (re.++  (str.to.re "\u{52}") (re.++  (str.to.re "\u{44}")  (str.to.re "\u{47}"))) (re.union  (re.++  (str.to.re "\u{52}") (re.++  (str.to.re "\u{4f}") (re.++  (str.to.re "\u{55}") (re.++  (str.to.re "\u{54}")  (str.to.re "\u{45}"))))) (re.union  (re.++  (str.to.re "\u{52}") (re.++  (str.to.re "\u{54}")  (str.to.re "\u{45}"))) (re.union  (re.++  (str.to.re "\u{54}") (re.++  (str.to.re "\u{55}") (re.++  (str.to.re "\u{52}") (re.++  (str.to.re "\u{4e}") (re.++  (str.to.re "\u{50}") (re.++  (str.to.re "\u{49}") (re.++  (str.to.re "\u{4b}")  (str.to.re "\u{45}")))))))) (re.union  (re.++  (str.to.re "\u{54}") (re.++  (str.to.re "\u{55}") (re.++  (str.to.re "\u{52}") (re.++  (str.to.re "\u{4e}") (re.++  (str.to.re "\u{50}")  (str.to.re "\u{4b}")))))) (re.union  (re.++  (str.to.re "\u{54}") (re.++  (str.to.re "\u{50}") (re.++  (str.to.re "\u{4b}")  (str.to.re "\u{45}")))) (re.union  (re.++  (str.to.re "\u{54}") (re.++  (str.to.re "\u{50}")  (str.to.re "\u{4b}"))) (re.union  (re.++  (str.to.re "\u{57}") (re.++  (str.to.re "\u{41}")  (str.to.re "\u{59}"))) (re.union  (re.++  (str.to.re "\u{57}")  (str.to.re "\u{59}")) (re.union  (re.++  (str.to.re "\u{53}") (re.++  (str.to.re "\u{4f}") (re.++  (str.to.re "\u{55}") (re.++  (str.to.re "\u{54}") (re.++  (str.to.re "\u{48}") (re.++  (str.to.re "\u{45}") (re.++  (str.to.re "\u{41}") (re.++  (str.to.re "\u{53}")  (str.to.re "\u{54}"))))))))) (re.union  (re.++  (str.to.re "\u{53}") (re.++  (str.to.re "\u{4f}") (re.++  (str.to.re "\u{55}") (re.++  (str.to.re "\u{54}") (re.++  (str.to.re "\u{48}") (re.++  (str.to.re "\u{57}") (re.++  (str.to.re "\u{45}") (re.++  (str.to.re "\u{53}")  (str.to.re "\u{54}"))))))))) (re.union  (re.++  (str.to.re "\u{53}") (re.++  (str.to.re "\u{4f}") (re.++  (str.to.re "\u{55}") (re.++  (str.to.re "\u{54}")  (str.to.re "\u{48}"))))) (re.union  (re.++  (str.to.re "\u{45}") (re.++  (str.to.re "\u{41}") (re.++  (str.to.re "\u{53}")  (str.to.re "\u{54}")))) (re.union  (re.++  (str.to.re "\u{4e}") (re.++  (str.to.re "\u{4f}") (re.++  (str.to.re "\u{52}") (re.++  (str.to.re "\u{54}") (re.++  (str.to.re "\u{48}") (re.++  (str.to.re "\u{45}") (re.++  (str.to.re "\u{41}") (re.++  (str.to.re "\u{53}")  (str.to.re "\u{54}"))))))))) (re.union  (re.++  (str.to.re "\u{4e}") (re.++  (str.to.re "\u{4f}") (re.++  (str.to.re "\u{52}") (re.++  (str.to.re "\u{54}") (re.++  (str.to.re "\u{48}") (re.++  (str.to.re "\u{57}") (re.++  (str.to.re "\u{45}") (re.++  (str.to.re "\u{53}")  (str.to.re "\u{54}"))))))))) (re.union  (re.++  (str.to.re "\u{4e}") (re.++  (str.to.re "\u{4f}") (re.++  (str.to.re "\u{52}") (re.++  (str.to.re "\u{54}")  (str.to.re "\u{48}"))))) (re.union  (re.++  (str.to.re "\u{57}") (re.++  (str.to.re "\u{45}") (re.++  (str.to.re "\u{53}")  (str.to.re "\u{54}")))) (re.union  (re.++  (str.to.re "\u{41}") (re.++  (str.to.re "\u{52}") (re.++  (str.to.re "\u{43}") (re.++  (str.to.re "\u{41}") (re.++  (str.to.re "\u{44}")  (str.to.re "\u{45}")))))) (re.union  (re.++  (str.to.re "\u{41}") (re.++  (str.to.re "\u{52}") (re.++  (str.to.re "\u{43}")  (str.to.re "\u{2e}")))) (re.union  (re.++  (str.to.re "\u{41}") (re.++  (str.to.re "\u{52}")  (str.to.re "\u{43}"))) (re.union  (re.++  (str.to.re "\u{41}") (re.++  (str.to.re "\u{56}") (re.++  (str.to.re "\u{45}") (re.++  (str.to.re "\u{4e}") (re.++  (str.to.re "\u{55}")  (str.to.re "\u{45}")))))) (re.union  (re.++  (str.to.re "\u{41}") (re.++  (str.to.re "\u{56}") (re.++  (str.to.re "\u{45}")  (str.to.re "\u{2e}")))) (re.union  (re.++  (str.to.re "\u{41}") (re.++  (str.to.re "\u{56}")  (str.to.re "\u{45}"))) (re.union  (re.++  (str.to.re "\u{42}") (re.++  (str.to.re "\u{4f}") (re.++  (str.to.re "\u{55}") (re.++  (str.to.re "\u{4c}") (re.++  (str.to.re "\u{45}") (re.++  (str.to.re "\u{56}") (re.++  (str.to.re "\u{41}") (re.++  (str.to.re "\u{52}")  (str.to.re "\u{44}"))))))))) (re.union  (re.++  (str.to.re "\u{42}") (re.++  (str.to.re "\u{56}") (re.++  (str.to.re "\u{44}")  (str.to.re "\u{2e}")))) (re.union  (re.++  (str.to.re "\u{42}") (re.++  (str.to.re "\u{56}")  (str.to.re "\u{44}"))) (re.union  (re.++  (str.to.re "\u{42}") (re.++  (str.to.re "\u{4c}") (re.++  (str.to.re "\u{56}") (re.++  (str.to.re "\u{44}")  (str.to.re "\u{2e}"))))) (re.union  (re.++  (str.to.re "\u{42}") (re.++  (str.to.re "\u{4c}") (re.++  (str.to.re "\u{56}")  (str.to.re "\u{44}")))) (re.union  (re.++  (str.to.re "\u{43}") (re.++  (str.to.re "\u{4c}") (re.++  (str.to.re "\u{4f}") (re.++  (str.to.re "\u{53}")  (str.to.re "\u{45}"))))) (re.union  (re.++  (str.to.re "\u{43}") (re.++  (str.to.re "\u{4c}")  (str.to.re "\u{2e}"))) (re.union  (re.++  (str.to.re "\u{43}")  (str.to.re "\u{4c}")) (re.union  (re.++  (str.to.re "\u{43}") (re.++  (str.to.re "\u{52}") (re.++  (str.to.re "\u{45}") (re.++  (str.to.re "\u{53}") (re.++  (str.to.re "\u{45}") (re.++  (str.to.re "\u{4e}")  (str.to.re "\u{54}"))))))) (re.union  (re.++  (str.to.re "\u{43}") (re.++  (str.to.re "\u{52}") (re.++  (str.to.re "\u{45}") (re.++  (str.to.re "\u{53}")  (str.to.re "\u{2e}"))))) (re.union  (re.++  (str.to.re "\u{43}") (re.++  (str.to.re "\u{52}") (re.++  (str.to.re "\u{45}")  (str.to.re "\u{53}")))) (re.union  (re.++  (str.to.re "\u{44}") (re.++  (str.to.re "\u{52}") (re.++  (str.to.re "\u{49}") (re.++  (str.to.re "\u{56}")  (str.to.re "\u{45}"))))) (re.union  (re.++  (str.to.re "\u{44}") (re.++  (str.to.re "\u{52}")  (str.to.re "\u{2e}"))) (re.union  (re.++  (str.to.re "\u{44}")  (str.to.re "\u{52}")) (re.union  (re.++  (str.to.re "\u{45}") (re.++  (str.to.re "\u{53}") (re.++  (str.to.re "\u{50}") (re.++  (str.to.re "\u{4c}") (re.++  (str.to.re "\u{41}") (re.++  (str.to.re "\u{4e}") (re.++  (str.to.re "\u{41}") (re.++  (str.to.re "\u{44}")  (str.to.re "\u{45}"))))))))) (re.union  (re.++  (str.to.re "\u{45}") (re.++  (str.to.re "\u{53}") (re.++  (str.to.re "\u{50}")  (str.to.re "\u{2e}")))) (re.union  (re.++  (str.to.re "\u{45}") (re.++  (str.to.re "\u{53}")  (str.to.re "\u{50}"))) (re.union  (re.++  (str.to.re "\u{47}") (re.++  (str.to.re "\u{52}") (re.++  (str.to.re "\u{4f}") (re.++  (str.to.re "\u{56}")  (str.to.re "\u{45}"))))) (re.union  (re.++  (str.to.re "\u{47}") (re.++  (str.to.re "\u{52}")  (str.to.re "\u{2e}"))) (re.union  (re.++  (str.to.re "\u{47}")  (str.to.re "\u{52}")) (re.union  (re.++  (str.to.re "\u{48}") (re.++  (str.to.re "\u{49}") (re.++  (str.to.re "\u{47}") (re.++  (str.to.re "\u{48}") (re.++  (str.to.re "\u{57}") (re.++  (str.to.re "\u{41}")  (str.to.re "\u{59}"))))))) (re.union  (re.++  (str.to.re "\u{48}") (re.++  (str.to.re "\u{57}") (re.++  (str.to.re "\u{59}")  (str.to.re "\u{2e}")))) (re.union  (re.++  (str.to.re "\u{48}") (re.++  (str.to.re "\u{57}")  (str.to.re "\u{59}"))) (re.union  (re.++  (str.to.re "\u{4c}") (re.++  (str.to.re "\u{41}") (re.++  (str.to.re "\u{4e}")  (str.to.re "\u{45}")))) (re.union  (re.++  (str.to.re "\u{4c}") (re.++  (str.to.re "\u{4e}")  (str.to.re "\u{2e}"))) (re.union  (re.++  (str.to.re "\u{4c}")  (str.to.re "\u{4e}")) (re.union  (re.++  (str.to.re "\u{50}") (re.++  (str.to.re "\u{41}") (re.++  (str.to.re "\u{52}") (re.++  (str.to.re "\u{41}") (re.++  (str.to.re "\u{44}")  (str.to.re "\u{45}")))))) (re.union  (re.++  (str.to.re "\u{50}") (re.++  (str.to.re "\u{44}") (re.++  (str.to.re "\u{45}")  (str.to.re "\u{2e}")))) (re.union  (re.++  (str.to.re "\u{50}") (re.++  (str.to.re "\u{44}")  (str.to.re "\u{45}"))) (re.union  (re.++  (str.to.re "\u{50}") (re.++  (str.to.re "\u{4c}") (re.++  (str.to.re "\u{41}") (re.++  (str.to.re "\u{43}") (re.++  (str.to.re "\u{45}")  (str.to.re "\u{2e}")))))) (re.union  (re.++  (str.to.re "\u{50}") (re.++  (str.to.re "\u{4c}") (re.++  (str.to.re "\u{41}") (re.++  (str.to.re "\u{43}")  (str.to.re "\u{45}"))))) (re.union  (re.++  (str.to.re "\u{50}") (re.++  (str.to.re "\u{4c}")  (str.to.re "\u{2e}"))) (re.union  (re.++  (str.to.re "\u{50}")  (str.to.re "\u{4c}")) (re.union  (re.++  (str.to.re "\u{52}") (re.++  (str.to.re "\u{4f}") (re.++  (str.to.re "\u{41}")  (str.to.re "\u{44}")))) (re.union  (re.++  (str.to.re "\u{52}") (re.++  (str.to.re "\u{44}")  (str.to.re "\u{2e}"))) (re.union  (re.++  (str.to.re "\u{52}")  (str.to.re "\u{44}")) (re.union  (re.++  (str.to.re "\u{53}") (re.++  (str.to.re "\u{51}") (re.++  (str.to.re "\u{55}") (re.++  (str.to.re "\u{41}") (re.++  (str.to.re "\u{52}")  (str.to.re "\u{45}")))))) (re.union  (re.++  (str.to.re "\u{53}") (re.++  (str.to.re "\u{51}")  (str.to.re "\u{2e}"))) (re.union  (re.++  (str.to.re "\u{53}")  (str.to.re "\u{51}")) (re.union  (re.++  (str.to.re "\u{53}") (re.++  (str.to.re "\u{54}") (re.++  (str.to.re "\u{52}") (re.++  (str.to.re "\u{45}") (re.++  (str.to.re "\u{45}")  (str.to.re "\u{54}")))))) (re.union  (re.++  (str.to.re "\u{53}") (re.++  (str.to.re "\u{54}")  (str.to.re "\u{2e}"))) (re.union  (re.++  (str.to.re "\u{53}")  (str.to.re "\u{54}")) (re.union  (re.++  (str.to.re "\u{54}") (re.++  (str.to.re "\u{45}") (re.++  (str.to.re "\u{52}") (re.++  (str.to.re "\u{52}") (re.++  (str.to.re "\u{41}") (re.++  (str.to.re "\u{43}")  (str.to.re "\u{45}"))))))) (re.union  (re.++  (str.to.re "\u{54}") (re.++  (str.to.re "\u{43}") (re.++  (str.to.re "\u{45}")  (str.to.re "\u{2e}")))) (re.union  (re.++  (str.to.re "\u{54}") (re.++  (str.to.re "\u{43}")  (str.to.re "\u{45}"))) (re.union  (re.++  (str.to.re "\u{53}")  (str.to.re "\u{2e}")) (re.union  (re.++  (str.to.re "\u{57}")  (str.to.re "\u{2e}")) (re.union  (re.++  (str.to.re "\u{4e}")  (str.to.re "\u{2e}")) (re.union  (re.++  (str.to.re "\u{45}")  (str.to.re "\u{2e}")) (re.union  (str.to.re "\u{4e}") (re.union  (str.to.re "\u{45}") (re.union  (str.to.re "\u{57}")  (str.to.re "\u{53}"))))))))))))))))))))))))))))))))))))))))))))))))))))))))))))))))))))))))))))))))))))))) (re.*  (str.to.re "\u{2c}") ))) )))
(check-sat)
(get-model)