TCS_Benchmarks/redos_fix/regexlib1_output_distinct_4382_4381_0_0.txt
(([ \.\-0-9A-Za-z])*)([,]*)
(([ \.\-0-9A-Za-z])*)((CIRCLE|CIR|MOUNTAIN|MTN|PARKWAY|PKWY|PKY|PLAZA|PLZA|PLZ|RIDGE|RDG|ROUTE|RTE|TURNPIKE|TURNPK|TPKE|TPK|WAY|WY|SOUTHEAST|SOUTHWEST|SOUTH|EAST|NORTHEAST|NORTHWEST|NORTH|WEST|ARCADE|ARC\.|ARC|AVENUE|AVE\.|AVE|BOULEVARD|BVD\.|BVD|BLVD\.|BLVD|CLOSE|CL\.|CL|CRESENT|CRES\.|CRES|DRIVE|DR\.|DR|ESPLANADE|ESP\.|ESP|GROVE|GR\.|GR|HIGHWAY|HWY\.|HWY|LANE|LN\.|LN|PARADE|PDE\.|PDE|PLACE\.|PLACE|PL\.|PL|ROAD|RD\.|RD|SQUARE|SQ\.|SQ|STREET|ST\.|ST|TERRACE|TCE\.|TCE|S\.|W\.|N\.|E\.|N|E|W|S))([,]*)